
n_res = 4;
rcap = [16, 16, 282, 269];
rtype = [1, 1, 2, 2];
n_tasks = 100;
modes =  [{1, 2, 3}, {4, 5, 6}, {7, 8, 9}, {10, 11, 12}, {13, 14, 15}, {16, 17, 18}, {19, 20, 21}, {22, 23, 24}, {25, 26, 27}, {28, 29, 30}, {31, 32, 33}, {34, 35, 36}, {37, 38, 39}, {40, 41, 42}, {43, 44, 45}, {46, 47, 48}, {49, 50, 51}, {52, 53, 54}, {55, 56, 57}, {58, 59, 60}, {61, 62, 63}, {64, 65, 66}, {67, 68, 69}, {70, 71, 72}, {73, 74, 75}, {76, 77, 78}, {79, 80, 81}, {82, 83, 84}, {85, 86, 87}, {88, 89, 90}, {91, 92, 93}, {94, 95, 96}, {97, 98, 99}, {100, 101, 102}, {103, 104, 105}, {106, 107, 108}, {109, 110, 111}, {112, 113, 114}, {115, 116, 117}, {118, 119, 120}, {121, 122, 123}, {124, 125, 126}, {127, 128, 129}, {130, 131, 132}, {133, 134, 135}, {136, 137, 138}, {139, 140, 141}, {142, 143, 144}, {145, 146, 147}, {148, 149, 150}, {151, 152, 153}, {154, 155, 156}, {157, 158, 159}, {160, 161, 162}, {163, 164, 165}, {166, 167, 168}, {169, 170, 171}, {172, 173, 174}, {175, 176, 177}, {178, 179, 180}, {181, 182, 183}, {184, 185, 186}, {187, 188, 189}, {190, 191, 192}, {193, 194, 195}, {196, 197, 198}, {199, 200, 201}, {202, 203, 204}, {205, 206, 207}, {208, 209, 210}, {211, 212, 213}, {214, 215, 216}, {217, 218, 219}, {220, 221, 222}, {223, 224, 225}, {226, 227, 228}, {229, 230, 231}, {232, 233, 234}, {235, 236, 237}, {238, 239, 240}, {241, 242, 243}, {244, 245, 246}, {247, 248, 249}, {250, 251, 252}, {253, 254, 255}, {256, 257, 258}, {259, 260, 261}, {262, 263, 264}, {265, 266, 267}, {268, 269, 270}, {271, 272, 273}, {274, 275, 276}, {277, 278, 279}, {280, 281, 282}, {283, 284, 285}, {286, 287, 288}, {289, 290, 291}, {292, 293, 294}, {295, 296, 297}, {298, 299, 300}];
succ =  [{42, 41, 35, 32, 31, 29, 28, 20, 19, 17, 10}, {43, 41, 38, 36, 29, 23, 9, 5}, {51, 44, 42, 41, 35, 34, 32, 31, 30, 29, 28, 23, 22}, {72, 51, 46, 44, 42, 39, 35, 30, 29, 25, 22, 20}, {52, 51, 48, 46, 44, 42, 40, 34, 28, 25, 22}, {53, 51, 48, 35, 33, 13}, {72, 59, 53, 52, 49, 48, 46, 45, 43, 34, 29, 26}, {56, 52, 49, 48, 46, 45, 42, 40, 38, 36, 34}, {52, 51, 50, 48, 46, 44, 28, 25}, {72, 52, 48, 45, 44, 43, 34, 26, 22}, {53, 51, 50, 48, 37, 35, 28, 27}, {72, 56, 54, 53, 49, 46, 44, 42, 40, 39, 34}, {72, 56, 54, 49, 46, 44, 42, 40, 39, 34}, {50, 48, 47, 46, 42, 34, 30, 28}, {50, 49, 48, 46, 44, 42, 30, 28}, {72, 65, 63, 61, 57, 52, 51, 50, 49, 46, 45, 42, 37}, {65, 63, 57, 56, 54, 53, 52, 50, 48, 46, 38, 37}, {79, 72, 61, 54, 53, 52, 49, 40, 37}, {72, 71, 65, 63, 59, 58, 56, 55, 53, 52, 49, 48, 47, 46, 45}, {79, 65, 61, 56, 53, 52, 50, 49, 48, 37}, {80, 72, 71, 65, 59, 54, 51, 49, 46, 34}, {79, 61, 57, 54, 53, 50, 49, 37}, {70, 55, 52, 48, 47, 46, 40}, {100, 98, 80, 79, 78, 72, 71, 70, 69, 65, 63, 62, 60, 58, 57, 55, 53, 52, 48}, {98, 70, 65, 63, 56, 53, 49, 37}, {98, 95, 79, 78, 71, 70, 64, 63, 60, 57, 56, 50, 47}, {99, 77, 72, 70, 67, 65, 63, 62, 59, 58, 54, 49, 46}, {100, 93, 79, 72, 69, 65, 63, 61, 57, 56, 55, 45}, {100, 99, 79, 70, 64, 62, 40}, {99, 80, 79, 78, 71, 67, 65, 61, 60, 59, 57, 55, 52}, {100, 99, 80, 67, 61, 57, 55, 52, 46}, {100, 96, 80, 78, 71, 70, 69, 65, 63, 60, 58, 55, 48}, {70, 58, 54, 47, 44}, {100, 92, 79, 78, 69, 67, 62, 61, 60, 58, 57, 55}, {100, 92, 80, 69, 67, 65, 63, 62, 58, 45}, {98, 95, 94, 89, 78, 71, 70, 68, 58, 55, 47}, {95, 78, 71, 60, 59, 58, 55, 47}, {100, 99, 96, 94, 80, 79, 78, 75, 72, 70, 69, 64, 59, 58, 51}, {98, 97, 77, 64, 60, 58, 57, 52, 47}, {98, 95, 78, 77, 71, 69, 65, 63, 60, 50}, {99, 98, 96, 95, 92, 80, 79, 77, 71, 69, 67, 66, 65, 60, 58}, {98, 96, 95, 92, 80, 70, 62, 60, 59, 58, 55}, {98, 96, 94, 92, 89, 75, 70, 68, 67, 66, 63, 62, 58}, {100, 96, 92, 91, 69, 67, 63, 62, 60, 55}, {99, 97, 77, 76, 70, 60, 54}, {98, 96, 93, 92, 79, 78, 74, 69, 64, 60}, {100, 99, 96, 93, 92, 91, 76, 75, 74, 73, 69, 67, 66, 62}, {99, 97, 95, 93, 92, 91, 90, 89, 88, 85, 83, 82, 77, 74, 73, 68, 67}, {97, 96, 95, 93, 91, 88, 85, 83, 74, 60}, {96, 92, 90, 89, 87, 80, 67, 66, 58}, {98, 95, 93, 92, 91, 90, 89, 88, 85, 83, 76, 74, 73, 68, 67}, {96, 95, 93, 92, 89, 88, 84, 75, 74, 68, 66}, {94, 93, 92, 91, 89, 88, 87, 86, 76, 75, 64}, {98, 95, 94, 90, 89, 88, 75, 74, 64}, {97, 90, 88, 87, 86, 77, 75, 73, 64}, {89, 88, 85, 83, 77, 76, 68, 67}, {96, 91, 90, 89, 87, 86, 85, 84, 83, 81, 76}, {93, 91, 88, 85, 84, 83, 76, 74, 73}, {90, 89, 88, 87, 74, 73, 66}, {94, 90, 89, 84, 82, 75, 73, 68}, {98, 95, 91, 86, 82, 70}, {90, 88, 87, 86, 83, 81}, {97, 87, 83, 82, 81}, {84, 66}, {89, 88, 84, 82}, {85, 83, 82}, {86, 84, 81}, {87, 81}, {90, 84}, {85, 83}, {97, 91}, {92, 82}, {81}, {86}, {81}, {82}, {84}, {81}, {81}, {81}, {}, {}, {}, {}, {}, {}, {}, {}, {}, {}, {}, {}, {}, {}, {}, {}, {}, {}, {}, {}];
n_opt = 300;
dur = [2, 7, 10, 4, 4, 5, 3, 8, 9, 1, 4, 8, 2, 8, 8, 8, 10, 10, 3, 7, 10, 3, 3, 4, 2, 7, 8, 3, 10, 10, 3, 7, 9, 3, 8, 9, 2, 5, 6, 7, 9, 10, 3, 5, 10, 1, 5, 10, 7, 8, 9, 2, 2, 3, 3, 4, 6, 1, 2, 7, 5, 5, 7, 3, 3, 10, 2, 6, 10, 6, 9, 10, 5, 9, 10, 4, 7, 10, 5, 6, 7, 1, 3, 4, 7, 8, 9, 5, 8, 9, 1, 6, 7, 2, 5, 8, 3, 9, 10, 1, 5, 8, 5, 6, 7, 1, 3, 6, 3, 8, 10, 5, 6, 8, 1, 9, 9, 5, 6, 7, 3, 4, 4, 1, 4, 6, 1, 8, 9, 2, 4, 8, 3, 5, 6, 1, 2, 4, 4, 10, 10, 2, 2, 8, 4, 5, 10, 6, 10, 10, 3, 8, 10, 6, 6, 8, 1, 8, 9, 1, 3, 8, 5, 6, 6, 3, 6, 7, 3, 4, 10, 2, 9, 10, 1, 2, 9, 1, 5, 6, 3, 4, 9, 1, 9, 9, 4, 7, 10, 2, 3, 7, 1, 3, 6, 2, 3, 6, 5, 7, 8, 1, 10, 10, 1, 4, 9, 6, 7, 8, 3, 7, 9, 2, 5, 5, 2, 3, 10, 5, 5, 5, 3, 7, 9, 4, 9, 9, 3, 8, 8, 1, 4, 8, 1, 2, 8, 2, 3, 5, 2, 3, 9, 1, 6, 7, 2, 4, 10, 3, 5, 6, 1, 2, 3, 2, 9, 10, 2, 3, 3, 1, 6, 9, 1, 1, 4, 5, 9, 9, 3, 7, 10, 7, 7, 8, 2, 4, 4, 1, 3, 5, 2, 5, 6, 1, 6, 10, 1, 4, 8, 4, 10, 10, 4, 6, 10, 1, 1, 6];
rreq = [|2, 0, 1, 0, 4, 3, 0, 3, 3, 1, 0, 0, 0, 3, 3, 3, 3, 0, 3, 2, 0, 5, 4, 2, 4, 0, 3, 2, 1, 1, 0, 0, 0, 0, 3, 0, 0, 3, 0, 2, 0, 0, 0, 4, 3, 0, 2, 2, 4, 0, 0, 2, 0, 0, 4, 3, 2, 5, 4, 3, 3, 2, 0, 3, 3, 2, 0, 2, 0, 0, 4, 4, 0, 3, 3, 0, 0, 2, 0, 0, 4, 0, 0, 0, 5, 4, 4, 5, 0, 5, 0, 3, 3, 0, 0, 3, 0, 3, 0, 0, 0, 1, 5, 2, 0, 0, 2, 1, 0, 3, 2, 2, 2, 1, 5, 5, 0, 4, 3, 3, 0, 1, 0, 0, 0, 0, 0, 4, 0, 3, 0, 0, 4, 3, 2, 0, 0, 2, 0, 0, 2, 0, 3, 0, 2, 0, 2, 3, 0, 0, 0, 0, 5, 2, 2, 2, 0, 3, 0, 0, 2, 1, 0, 0, 0, 0, 0, 3, 0, 3, 1, 0, 2, 0, 3, 0, 0, 4, 0, 0, 0, 3, 3, 0, 2, 0, 4, 3, 2, 1, 1, 1, 0, 0, 3, 5, 5, 5, 0, 0, 2, 0, 2, 0, 4, 3, 0, 4, 0, 4, 0, 2, 2, 0, 0, 1, 3, 3, 3, 0, 0, 3, 2, 2, 2, 4, 0, 1, 5, 0, 2, 0, 3, 0, 4, 4, 4, 0, 0, 0, 5, 0, 0, 2, 0, 1, 0, 0, 3, 0, 4, 4, 0, 3, 1, 5, 0, 0, 3, 3, 0, 4, 0, 3, 0, 3, 2, 0, 4, 4, 2, 1, 1, 0, 2, 1, 0, 0, 0, 0, 4, 0, 5, 4, 3, 5, 0, 0, 0, 2, 2, 0, 0, 0, 0, 0, 3, 4, 2, 2
 |0, 4, 0, 4, 0, 0, 4, 0, 0, 0, 4, 4, 1, 0, 0, 0, 0, 1, 0, 0, 3, 0, 0, 0, 0, 3, 0, 0, 0, 0, 5, 4, 4, 4, 0, 3, 4, 0, 4, 0, 3, 3, 5, 0, 0, 5, 0, 0, 0, 3, 2, 0, 3, 2, 0, 0, 0, 0, 0, 0, 0, 0, 1, 0, 0, 0, 2, 0, 1, 4, 0, 0, 1, 0, 0, 2, 1, 0, 5, 4, 0, 3, 2, 2, 0, 0, 0, 0, 2, 0, 5, 0, 0, 5, 2, 0, 3, 0, 3, 4, 2, 0, 0, 0, 1, 5, 0, 0, 4, 0, 0, 0, 0, 0, 0, 0, 3, 0, 0, 0, 3, 0, 3, 3, 2, 1, 4, 0, 3, 0, 4, 4, 0, 0, 0, 3, 3, 0, 4, 4, 0, 4, 0, 3, 0, 2, 0, 0, 3, 2, 3, 3, 0, 0, 0, 0, 3, 0, 2, 5, 0, 0, 5, 4, 4, 4, 3, 0, 4, 0, 0, 5, 0, 1, 0, 2, 2, 0, 3, 3, 2, 0, 0, 1, 0, 1, 0, 0, 0, 0, 0, 0, 2, 2, 0, 0, 0, 0, 4, 3, 0, 2, 0, 1, 0, 0, 2, 0, 5, 0, 4, 0, 0, 5, 5, 0, 0, 0, 0, 4, 3, 0, 0, 0, 0, 0, 1, 0, 0, 3, 0, 4, 0, 3, 0, 0, 0, 5, 4, 4, 0, 2, 1, 0, 3, 0, 4, 2, 0, 4, 0, 0, 4, 0, 0, 0, 2, 2, 0, 0, 1, 0, 2, 0, 2, 0, 0, 5, 0, 0, 0, 0, 0, 5, 0, 0, 4, 2, 1, 5, 0, 5, 0, 0, 0, 0, 3, 1, 3, 0, 0, 4, 3, 1, 5, 3, 0, 0, 0, 0
 |3, 3, 0, 2, 0, 0, 8, 0, 0, 1, 0, 1, 0, 0, 7, 5, 0, 0, 0, 9, 8, 8, 0, 6, 5, 0, 0, 0, 0, 1, 3, 0, 0, 4, 4, 4, 0, 7, 0, 0, 3, 1, 3, 0, 0, 8, 7, 0, 0, 0, 0, 0, 6, 4, 0, 0, 6, 0, 0, 3, 5, 0, 0, 0, 2, 1, 6, 0, 5, 0, 7, 6, 2, 0, 2, 0, 5, 0, 0, 7, 7, 2, 2, 0, 6, 0, 5, 0, 0, 8, 0, 4, 0, 0, 0, 0, 7, 7, 6, 0, 4, 2, 10, 0, 0, 7, 0, 0, 5, 3, 3, 9, 0, 6, 0, 0, 0, 0, 3, 2, 0, 4, 3, 0, 0, 3, 0, 0, 0, 9, 0, 5, 0, 0, 3, 0, 0, 4, 7, 0, 0, 0, 0, 0, 7, 5, 0, 9, 0, 1, 3, 0, 0, 0, 6, 0, 5, 5, 5, 8, 6, 5, 7, 0, 5, 4, 3, 0, 8, 0, 8, 7, 6, 5, 0, 2, 0, 6, 5, 0, 5, 3, 2, 0, 0, 0, 6, 0, 4, 0, 4, 3, 7, 0, 7, 7, 0, 6, 6, 5, 0, 0, 0, 0, 6, 6, 0, 6, 0, 4, 10, 0, 4, 9, 0, 0, 0, 3, 0, 8, 0, 7, 0, 3, 0, 0, 0, 3, 6, 0, 0, 8, 0, 4, 9, 0, 0, 10, 0, 0, 8, 0, 6, 0, 0, 7, 8, 7, 6, 6, 0, 0, 1, 0, 0, 7, 0, 0, 0, 4, 4, 6, 0, 5, 10, 8, 7, 0, 0, 2, 3, 3, 2, 0, 0, 0, 1, 0, 1, 0, 5, 0, 0, 7, 0, 0, 6, 6, 0, 6, 0, 0, 7, 0, 5, 0, 1, 9, 0, 6
 |0, 0, 7, 0, 5, 5, 0, 7, 6, 0, 6, 0, 7, 7, 0, 0, 3, 2, 7, 0, 0, 0, 9, 0, 0, 3, 3, 9, 8, 0, 0, 4, 2, 0, 0, 0, 2, 0, 1, 10, 0, 0, 0, 2, 2, 0, 0, 9, 9, 9, 9, 8, 0, 0, 7, 7, 0, 2, 1, 0, 0, 6, 6, 3, 0, 0, 0, 4, 0, 5, 0, 0, 0, 3, 0, 9, 0, 9, 3, 0, 0, 0, 0, 3, 0, 2, 0, 7, 6, 0, 4, 0, 4, 4, 4, 3, 0, 0, 0, 6, 0, 0, 0, 2, 1, 0, 8, 8, 0, 0, 0, 0, 5, 0, 10, 8, 7, 8, 0, 0, 7, 0, 0, 9, 7, 0, 3, 2, 2, 0, 8, 0, 10, 9, 0, 6, 3, 0, 0, 4, 4, 6, 4, 3, 0, 0, 7, 0, 3, 0, 0, 4, 2, 8, 0, 7, 0, 0, 0, 0, 0, 0, 0, 5, 0, 0, 0, 4, 0, 4, 0, 0, 0, 0, 2, 0, 2, 0, 0, 2, 0, 0, 0, 10, 9, 8, 0, 7, 0, 8, 0, 0, 0, 3, 0, 0, 6, 0, 0, 0, 7, 7, 7, 7, 0, 0, 7, 0, 6, 0, 0, 1, 0, 0, 3, 3, 8, 0, 4, 0, 5, 0, 6, 0, 1, 6, 6, 0, 0, 6, 2, 0, 6, 0, 0, 2, 1, 0, 4, 2, 0, 8, 0, 2, 2, 0, 0, 0, 0, 0, 10, 9, 0, 3, 2, 0, 7, 6, 7, 0, 0, 0, 7, 0, 0, 0, 0, 9, 8, 0, 0, 0, 0, 2, 2, 2, 0, 2, 0, 4, 0, 3, 1, 0, 1, 3, 0, 0, 9, 0, 7, 10, 0, 9, 0, 3, 0, 0, 4, 0|];